MSW06
Position Depot: Center
Horizon for Depot: Small
Position of customers: Mixt
Distribution of the demand: Large
Width of time windows: Wide
Distribution of the service: Large

VEHICLE 
NUMBER 	 CAPACITY 
 16 	 	 304 
 
CUSTOMER
CUST NO. 	 XCOORD.  	 YCOORD. 	 DEMAND 	 READY TIME 	 DUE DATE 	 SERVICE TIME 
 0 	 	 500 	 	 500 	 	 0 	 	 0 	 	 2396 	 	 0 
  1 	 	 398 	 	 307 	 	 38 	 	 -61 	 	 240 	 	 156 
  2 	 	 121 	 	 253 	 	 92 	 	 32 	 	 497 	 	 155 
  3 	 	 588 	 	 36 	 	 25 	 	 1477 	 	 1865 	 	 109 
  4 	 	 347 	 	 562 	 	 72 	 	 487 	 	 749 	 	 190 
  5 	 	 674 	 	 51 	 	 1 	 	 1995 	 	 2297 	 	 181 
  6 	 	 100 	 	 131 	 	 71 	 	 1327 	 	 1727 	 	 141 
  7 	 	 593 	 	 530 	 	 64 	 	 427 	 	 762 	 	 174 
  8 	 	 179 	 	 400 	 	 87 	 	 452 	 	 823 	 	 178 
  9 	 	 555 	 	 514 	 	 3 	 	 1647 	 	 1991 	 	 185 
  10 	 	 575 	 	 64 	 	 55 	 	 655 	 	 927 	 	 121 
  11 	 	 683 	 	 59 	 	 78 	 	 1036 	 	 1445 	 	 103 
  12 	 	 664 	 	 101 	 	 76 	 	 642 	 	 947 	 	 153 
  13 	 	 773 	 	 12 	 	 93 	 	 1475 	 	 1860 	 	 137 
  14 	 	 712 	 	 94 	 	 11 	 	 1174 	 	 1604 	 	 115 
  15 	 	 660 	 	 25 	 	 45 	 	 427 	 	 852 	 	 173 
  16 	 	 437 	 	 303 	 	 37 	 	 1245 	 	 1722 	 	 171 
  17 	 	 596 	 	 113 	 	 75 	 	 1363 	 	 1611 	 	 135 
  18 	 	 450 	 	 413 	 	 51 	 	 208 	 	 572 	 	 131 
  19 	 	 331 	 	 539 	 	 29 	 	 832 	 	 1085 	 	 167 
  20 	 	 143 	 	 227 	 	 91 	 	 189 	 	 654 	 	 132 
  21 	 	 317 	 	 567 	 	 1 	 	 934 	 	 1312 	 	 151 
  22 	 	 370 	 	 325 	 	 53 	 	 1657 	 	 1893 	 	 132 
  23 	 	 572 	 	 44 	 	 76 	 	 1117 	 	 1385 	 	 182 
  24 	 	 86 	 	 201 	 	 11 	 	 208 	 	 561 	 	 175 
  25 	 	 595 	 	 105 	 	 78 	 	 52 	 	 446 	 	 181 
  26 	 	 349 	 	 152 	 	 38 	 	 113 	 	 417 	 	 108 
  27 	 	 337 	 	 320 	 	 78 	 	 2064 	 	 2396 	 	 185 
  28 	 	 457 	 	 258 	 	 75 	 	 1610 	 	 2019 	 	 188 
  29 	 	 465 	 	 255 	 	 9 	 	 142 	 	 598 	 	 115 
  30 	 	 160 	 	 351 	 	 9 	 	 1910 	 	 2219 	 	 140 
  31 	 	 282 	 	 553 	 	 96 	 	 646 	 	 1044 	 	 103 
  32 	 	 523 	 	 54 	 	 80 	 	 928 	 	 1137 	 	 183 
  33 	 	 621 	 	 104 	 	 24 	 	 651 	 	 1120 	 	 167 
  34 	 	 574 	 	 46 	 	 100 	 	 627 	 	 902 	 	 175 
  35 	 	 659 	 	 120 	 	 49 	 	 1666 	 	 2048 	 	 144 
  36 	 	 118 	 	 362 	 	 49 	 	 1268 	 	 1705 	 	 152 
  37 	 	 314 	 	 615 	 	 42 	 	 786 	 	 1196 	 	 172 
  38 	 	 120 	 	 252 	 	 3 	 	 550 	 	 797 	 	 177 
  39 	 	 681 	 	 43 	 	 16 	 	 1204 	 	 1669 	 	 179 
  40 	 	 223 	 	 234 	 	 68 	 	 108 	 	 422 	 	 133 
  41 	 	 696 	 	 44 	 	 28 	 	 763 	 	 1014 	 	 164 
  42 	 	 634 	 	 154 	 	 20 	 	 -9 	 	 408 	 	 116 
  43 	 	 388 	 	 295 	 	 49 	 	 873 	 	 1351 	 	 126 
  44 	 	 675 	 	 72 	 	 14 	 	 1394 	 	 1611 	 	 105 
  45 	 	 462 	 	 320 	 	 31 	 	 2000 	 	 2291 	 	 169 
  46 	 	 24 	 	 401 	 	 41 	 	 1572 	 	 1851 	 	 101 
  47 	 	 510 	 	 431 	 	 100 	 	 692 	 	 1172 	 	 147 
  48 	 	 727 	 	 16 	 	 52 	 	 1586 	 	 2028 	 	 158 
  49 	 	 493 	 	 7 	 	 86 	 	 226 	 	 632 	 	 119 
  50 	 	 379 	 	 86 	 	 10 	 	 1485 	 	 1947 	 	 159 
  51 	 	 175 	 	 782 	 	 10 	 	 2156 	 	 2396 	 	 174 
  52 	 	 780 	 	 803 	 	 98 	 	 480 	 	 844 	 	 150 
  53 	 	 332 	 	 951 	 	 47 	 	 1747 	 	 2074 	 	 146 
  54 	 	 457 	 	 277 	 	 37 	 	 -51 	 	 282 	 	 146 
  55 	 	 296 	 	 533 	 	 27 	 	 49 	 	 412 	 	 136 
  56 	 	 521 	 	 112 	 	 93 	 	 920 	 	 1297 	 	 140 
  57 	 	 620 	 	 253 	 	 98 	 	 2011 	 	 2377 	 	 132 
  58 	 	 908 	 	 659 	 	 22 	 	 327 	 	 768 	 	 185 
  59 	 	 333 	 	 348 	 	 95 	 	 1077 	 	 1481 	 	 109 
  60 	 	 63 	 	 465 	 	 19 	 	 115 	 	 482 	 	 136 
  61 	 	 793 	 	 575 	 	 64 	 	 1426 	 	 1635 	 	 110 
  62 	 	 309 	 	 265 	 	 54 	 	 807 	 	 1048 	 	 102 
  63 	 	 488 	 	 919 	 	 88 	 	 775 	 	 1095 	 	 191 
  64 	 	 391 	 	 473 	 	 88 	 	 2073 	 	 2396 	 	 149 
  65 	 	 992 	 	 710 	 	 2 	 	 157 	 	 588 	 	 195 
  66 	 	 197 	 	 416 	 	 90 	 	 1445 	 	 1922 	 	 151 
  67 	 	 348 	 	 303 	 	 59 	 	 1483 	 	 1880 	 	 145 
  68 	 	 1 	 	 192 	 	 3 	 	 1402 	 	 1662 	 	 109 
  69 	 	 76 	 	 791 	 	 97 	 	 916 	 	 1290 	 	 126 
  70 	 	 503 	 	 764 	 	 30 	 	 1 	 	 387 	 	 136 
  71 	 	 290 	 	 351 	 	 19 	 	 2012 	 	 2396 	 	 102 
  72 	 	 763 	 	 803 	 	 47 	 	 660 	 	 968 	 	 102 
  73 	 	 414 	 	 541 	 	 11 	 	 1237 	 	 1448 	 	 128 
  74 	 	 477 	 	 35 	 	 99 	 	 2160 	 	 2396 	 	 171 
  75 	 	 573 	 	 50 	 	 79 	 	 1007 	 	 1340 	 	 186 
  76 	 	 230 	 	 145 	 	 29 	 	 1117 	 	 1412 	 	 119 
  77 	 	 819 	 	 972 	 	 47 	 	 1458 	 	 1934 	 	 183 
  78 	 	 616 	 	 749 	 	 14 	 	 1210 	 	 1636 	 	 120 
  79 	 	 468 	 	 320 	 	 1 	 	 1966 	 	 2396 	 	 110 
  80 	 	 16 	 	 630 	 	 86 	 	 2175 	 	 2396 	 	 137 
  81 	 	 5 	 	 858 	 	 98 	 	 715 	 	 1211 	 	 180 
  82 	 	 1000 	 	 950 	 	 72 	 	 1396 	 	 1822 	 	 109 
  83 	 	 900 	 	 597 	 	 57 	 	 1671 	 	 2100 	 	 124 
  84 	 	 996 	 	 989 	 	 77 	 	 1896 	 	 2328 	 	 133 
  85 	 	 896 	 	 134 	 	 84 	 	 358 	 	 630 	 	 135 
  86 	 	 997 	 	 596 	 	 5 	 	 1342 	 	 1730 	 	 175 
  87 	 	 747 	 	 963 	 	 50 	 	 670 	 	 1157 	 	 114 
  88 	 	 537 	 	 752 	 	 83 	 	 642 	 	 937 	 	 119 
  89 	 	 173 	 	 715 	 	 76 	 	 1418 	 	 1687 	 	 174 
  90 	 	 423 	 	 409 	 	 2 	 	 -26 	 	 220 	 	 167 
  91 	 	 758 	 	 999 	 	 43 	 	 650 	 	 1052 	 	 172 
  92 	 	 638 	 	 391 	 	 90 	 	 402 	 	 637 	 	 166 
  93 	 	 783 	 	 286 	 	 15 	 	 2100 	 	 2335 	 	 169 
  94 	 	 702 	 	 410 	 	 21 	 	 2142 	 	 2396 	 	 105 
  95 	 	 126 	 	 349 	 	 18 	 	 1124 	 	 1352 	 	 189 
  96 	 	 611 	 	 779 	 	 54 	 	 2084 	 	 2358 	 	 135 
  97 	 	 615 	 	 411 	 	 4 	 	 -78 	 	 220 	 	 111 
  98 	 	 678 	 	 802 	 	 48 	 	 1781 	 	 2194 	 	 107 
  99 	 	 852 	 	 738 	 	 42 	 	 807 	 	 1228 	 	 191 
  100 	 	 957 	 	 874 	 	 92 	 	 1087 	 	 1523 	 	 171 
 